NAME PortOpt_n20_m8_inst_1
ROWS
 N  OBJ
 E  budget  
 L  return  
 L  uncertain_risk
 L  fixed_risk
COLUMNS
    asset[0]  budget    1
    asset[0]  return    -2.0885701066606019e+00
    asset[1]  budget    1
    asset[1]  return    -3.1494429336127361e+00
    asset[2]  budget    1
    asset[2]  return    -2.8130915567953494e+00
    asset[3]  budget    1
    asset[3]  return    -1.1118643566266782e+00
    asset[4]  budget    1
    asset[4]  return    -1.5902109861610119e+00
    asset[5]  budget    1
    asset[5]  return    -2.8828481838574374e+00
    asset[6]  budget    1
    asset[6]  return    -4.9497432211817571e+00
    asset[7]  budget    1
    asset[7]  return    -4.0020092119525668e+00
    asset[8]  budget    1
    asset[8]  return    -3.2513170799782789e+00
    asset[9]  budget    1
    asset[9]  return    -4.0611924793669010e+00
    asset[10]  budget    1
    asset[10]  return    -4.5561245806320994e+00
    asset[11]  budget    1
    asset[11]  return    -3.9675501422116981e+00
    asset[12]  budget    1
    asset[12]  return    -4.7880439390768528e+00
    asset[13]  budget    1
    asset[13]  return    -2.2819248953342801e+00
    asset[14]  budget    1
    asset[14]  return    -2.4512644159077110e+00
    asset[15]  budget    1
    asset[15]  return    -2.4796604177689736e+00
    asset[16]  budget    1
    asset[16]  return    -1.0650220052224182e+00
    asset[17]  budget    1
    asset[17]  return    -1.8340562122240667e+00
    asset[18]  budget    1
    asset[18]  return    -3.8847426067431674e+00
    asset[19]  budget    1
    asset[19]  return    -2.9253016377790484e+00
    return_var  OBJ       -1
    return_var  return    1
    uncertain_risk_var  OBJ       1
    uncertain_risk_var  uncertain_risk  -1
    fixed_risk_var  OBJ       1
    fixed_risk_var  fixed_risk  -1
RHS
    RHS1      budget    1
BOUNDS
QCMATRIX   uncertain_risk
    asset[0]  asset[0]  2.9585377973400020e-02
    asset[0]  asset[1]  4.1190298927889120e-03
    asset[1]  asset[0]  4.1190298927889120e-03
    asset[0]  asset[2]  4.3055773558510306e-03
    asset[2]  asset[0]  4.3055773558510306e-03
    asset[0]  asset[3]  1.1074275712163637e-02
    asset[3]  asset[0]  1.1074275712163637e-02
    asset[0]  asset[4]  1.0229153118095543e-02
    asset[4]  asset[0]  1.0229153118095543e-02
    asset[0]  asset[5]  1.2091609691678364e-02
    asset[5]  asset[0]  1.2091609691678364e-02
    asset[0]  asset[6]  2.0279883308767822e-02
    asset[6]  asset[0]  2.0279883308767822e-02
    asset[0]  asset[7]  -7.6401610315739001e-03
    asset[7]  asset[0]  -7.6401610315739001e-03
    asset[0]  asset[8]  -5.0522908386581633e-02
    asset[8]  asset[0]  -5.0522908386581633e-02
    asset[0]  asset[9]  -3.7546222377466063e-02
    asset[9]  asset[0]  -3.7546222377466063e-02
    asset[0]  asset[10]  1.7248009702654610e-02
    asset[10]  asset[0]  1.7248009702654610e-02
    asset[0]  asset[11]  1.4952217642828359e-03
    asset[11]  asset[0]  1.4952217642828359e-03
    asset[0]  asset[12]  -7.4025949311100879e-04
    asset[12]  asset[0]  -7.4025949311100879e-04
    asset[0]  asset[13]  6.2698792599693914e-03
    asset[13]  asset[0]  6.2698792599693914e-03
    asset[0]  asset[14]  -7.5708962107717956e-04
    asset[14]  asset[0]  -7.5708962107717956e-04
    asset[0]  asset[15]  8.1886288337734009e-03
    asset[15]  asset[0]  8.1886288337734009e-03
    asset[0]  asset[16]  4.6582363673453621e-03
    asset[16]  asset[0]  4.6582363673453621e-03
    asset[0]  asset[17]  1.3635431775079428e-02
    asset[17]  asset[0]  1.3635431775079428e-02
    asset[0]  asset[18]  -4.7268756355298869e-02
    asset[18]  asset[0]  -4.7268756355298869e-02
    asset[0]  asset[19]  -6.4326288828572293e-03
    asset[19]  asset[0]  -6.4326288828572293e-03
    asset[1]  asset[1]  7.6889583511500171e-03
    asset[1]  asset[2]  1.7186704964173938e-03
    asset[2]  asset[1]  1.7186704964173938e-03
    asset[1]  asset[3]  -2.9803034619817052e-03
    asset[3]  asset[1]  -2.9803034619817052e-03
    asset[1]  asset[4]  1.8499193443546373e-04
    asset[4]  asset[1]  1.8499193443546373e-04
    asset[1]  asset[5]  -8.9765200907642069e-03
    asset[5]  asset[1]  -8.9765200907642069e-03
    asset[1]  asset[6]  3.9286365415688897e-03
    asset[6]  asset[1]  3.9286365415688897e-03
    asset[1]  asset[7]  -1.1586320745068660e-02
    asset[7]  asset[1]  -1.1586320745068660e-02
    asset[1]  asset[8]  -4.6823554726336050e-03
    asset[8]  asset[1]  -4.6823554726336050e-03
    asset[1]  asset[9]  -5.4305654359334578e-03
    asset[9]  asset[1]  -5.4305654359334578e-03
    asset[1]  asset[10]  -1.2387557591475354e-03
    asset[10]  asset[1]  -1.2387557591475354e-03
    asset[1]  asset[11]  1.1368331144336406e-02
    asset[11]  asset[1]  1.1368331144336406e-02
    asset[1]  asset[12]  7.8173179335469523e-03
    asset[12]  asset[1]  7.8173179335469523e-03
    asset[1]  asset[13]  -1.7400009600609869e-03
    asset[13]  asset[1]  -1.7400009600609869e-03
    asset[1]  asset[14]  -3.1496527139043494e-03
    asset[14]  asset[1]  -3.1496527139043494e-03
    asset[1]  asset[15]  3.5259586701978569e-03
    asset[15]  asset[1]  3.5259586701978569e-03
    asset[1]  asset[16]  1.5839049767799106e-02
    asset[16]  asset[1]  1.5839049767799106e-02
    asset[1]  asset[17]  -2.3745931893279096e-03
    asset[17]  asset[1]  -2.3745931893279096e-03
    asset[1]  asset[18]  -4.1474070440066929e-03
    asset[18]  asset[1]  -4.1474070440066929e-03
    asset[1]  asset[19]  4.5878366177767244e-03
    asset[19]  asset[1]  4.5878366177767244e-03
    asset[2]  asset[2]  2.1132180608956906e-02
    asset[2]  asset[3]  1.2819207358510996e-02
    asset[3]  asset[2]  1.2819207358510996e-02
    asset[2]  asset[4]  -1.2923789307156845e-04
    asset[4]  asset[2]  -1.2923789307156845e-04
    asset[2]  asset[5]  -1.0186727091377126e-02
    asset[5]  asset[2]  -1.0186727091377126e-02
    asset[2]  asset[6]  2.9638688012558678e-03
    asset[6]  asset[2]  2.9638688012558678e-03
    asset[2]  asset[7]  -1.8517015731592493e-02
    asset[7]  asset[2]  -1.8517015731592493e-02
    asset[2]  asset[8]  -9.2709424383923076e-03
    asset[8]  asset[2]  -9.2709424383923076e-03
    asset[2]  asset[9]  -6.0636924592138586e-03
    asset[9]  asset[2]  -6.0636924592138586e-03
    asset[2]  asset[10]  -4.0961966702975517e-03
    asset[10]  asset[2]  -4.0961966702975517e-03
    asset[2]  asset[11]  7.6351649129633315e-03
    asset[11]  asset[2]  7.6351649129633315e-03
    asset[2]  asset[12]  1.7706107651359541e-02
    asset[12]  asset[2]  1.7706107651359541e-02
    asset[2]  asset[13]  -1.0227841968395920e-02
    asset[13]  asset[2]  -1.0227841968395920e-02
    asset[2]  asset[14]  -1.2172492353643492e-03
    asset[14]  asset[2]  -1.2172492353643492e-03
    asset[2]  asset[15]  -6.0580045467446206e-03
    asset[15]  asset[2]  -6.0580045467446206e-03
    asset[2]  asset[16]  1.9546411581190365e-03
    asset[16]  asset[2]  1.9546411581190365e-03
    asset[2]  asset[17]  3.8777938434320998e-03
    asset[17]  asset[2]  3.8777938434320998e-03
    asset[2]  asset[18]  -5.0968877961077626e-03
    asset[18]  asset[2]  -5.0968877961077626e-03
    asset[2]  asset[19]  1.3158334877112746e-02
    asset[19]  asset[2]  1.3158334877112746e-02
    asset[3]  asset[3]  1.6216646899125525e-02
    asset[3]  asset[4]  7.4700167888602838e-03
    asset[4]  asset[3]  7.4700167888602838e-03
    asset[3]  asset[5]  9.9061509432575995e-03
    asset[5]  asset[3]  9.9061509432575995e-03
    asset[3]  asset[6]  8.7171580371226322e-03
    asset[6]  asset[3]  8.7171580371226322e-03
    asset[3]  asset[7]  -8.5529120237997063e-03
    asset[7]  asset[3]  -8.5529120237997063e-03
    asset[3]  asset[8]  -2.9653725495593981e-02
    asset[8]  asset[3]  -2.9653725495593981e-02
    asset[3]  asset[9]  -1.7507406876029422e-02
    asset[9]  asset[3]  -1.7507406876029422e-02
    asset[3]  asset[10]  7.2500211581086474e-03
    asset[10]  asset[3]  7.2500211581086474e-03
    asset[3]  asset[11]  2.3954095261569396e-04
    asset[11]  asset[3]  2.3954095261569396e-04
    asset[3]  asset[12]  1.0892975638451746e-02
    asset[12]  asset[3]  1.0892975638451746e-02
    asset[3]  asset[13]  2.5373945514805783e-03
    asset[13]  asset[3]  2.5373945514805783e-03
    asset[3]  asset[14]  -1.6658370258585704e-03
    asset[14]  asset[3]  -1.6658370258585704e-03
    asset[3]  asset[15]  -1.3215101348263477e-03
    asset[15]  asset[3]  -1.3215101348263477e-03
    asset[3]  asset[16]  -8.7716979894743551e-03
    asset[16]  asset[3]  -8.7716979894743551e-03
    asset[3]  asset[17]  9.2363358530441111e-03
    asset[17]  asset[3]  9.2363358530441111e-03
    asset[3]  asset[18]  -2.2593242023628893e-02
    asset[18]  asset[3]  -2.2593242023628893e-02
    asset[3]  asset[19]  -9.5497055778118308e-04
    asset[19]  asset[3]  -9.5497055778118308e-04
    asset[4]  asset[4]  1.8227254927658004e-02
    asset[4]  asset[5]  2.1206886985333441e-02
    asset[5]  asset[4]  2.1206886985333441e-02
    asset[4]  asset[6]  7.8301563514891689e-03
    asset[6]  asset[4]  7.8301563514891689e-03
    asset[4]  asset[7]  2.1481192460966092e-03
    asset[7]  asset[4]  2.1481192460966092e-03
    asset[4]  asset[8]  -3.8862666426086434e-02
    asset[8]  asset[4]  -3.8862666426086434e-02
    asset[4]  asset[9]  -1.9341932599759602e-02
    asset[9]  asset[4]  -1.9341932599759602e-02
    asset[4]  asset[10]  1.4769359769668920e-02
    asset[10]  asset[4]  1.4769359769668920e-02
    asset[4]  asset[11]  -4.4408112493027818e-03
    asset[11]  asset[4]  -4.4408112493027818e-03
    asset[4]  asset[12]  1.2662429500632684e-02
    asset[12]  asset[4]  1.2662429500632684e-02
    asset[4]  asset[13]  1.8239577980497343e-02
    asset[13]  asset[4]  1.8239577980497343e-02
    asset[4]  asset[14]  -8.7548964320675830e-03
    asset[14]  asset[4]  -8.7548964320675830e-03
    asset[4]  asset[15]  4.1382175079016700e-03
    asset[15]  asset[4]  4.1382175079016700e-03
    asset[4]  asset[16]  -8.7936658059071596e-03
    asset[16]  asset[4]  -8.7936658059071596e-03
    asset[4]  asset[17]  9.4990378285198240e-03
    asset[17]  asset[4]  9.4990378285198240e-03
    asset[4]  asset[18]  -3.4334308282195539e-02
    asset[18]  asset[4]  -3.4334308282195539e-02
    asset[4]  asset[19]  -1.7489076438234566e-02
    asset[19]  asset[4]  -1.7489076438234566e-02
    asset[5]  asset[5]  4.3532029082221819e-02
    asset[5]  asset[6]  9.3123683533930315e-03
    asset[6]  asset[5]  9.3123683533930315e-03
    asset[5]  asset[7]  2.2388089136086857e-02
    asset[7]  asset[5]  2.2388089136086857e-02
    asset[5]  asset[8]  -4.4410224661145387e-02
    asset[8]  asset[5]  -4.4410224661145387e-02
    asset[5]  asset[9]  -2.2562942646406167e-02
    asset[9]  asset[5]  -2.2562942646406167e-02
    asset[5]  asset[10]  2.1529128354146471e-02
    asset[10]  asset[5]  2.1529128354146471e-02
    asset[5]  asset[11]  -2.2122486017227209e-02
    asset[11]  asset[5]  -2.2122486017227209e-02
    asset[5]  asset[12]  -5.8831775710553478e-03
    asset[12]  asset[5]  -5.8831775710553478e-03
    asset[5]  asset[13]  2.7712384111188169e-02
    asset[13]  asset[5]  2.7712384111188169e-02
    asset[5]  asset[14]  -2.7706253855277014e-03
    asset[14]  asset[5]  -2.7706253855277014e-03
    asset[5]  asset[15]  4.9819176491843441e-03
    asset[15]  asset[5]  4.9819176491843441e-03
    asset[5]  asset[16]  -2.6662605086887718e-02
    asset[16]  asset[5]  -2.6662605086887718e-02
    asset[5]  asset[17]  1.4457575002950609e-02
    asset[17]  asset[5]  1.4457575002950609e-02
    asset[5]  asset[18]  -3.8543687196954751e-02
    asset[18]  asset[5]  -3.8543687196954751e-02
    asset[5]  asset[19]  -3.1527817745774053e-02
    asset[19]  asset[5]  -3.1527817745774053e-02
    asset[6]  asset[6]  1.6520160480444364e-02
    asset[6]  asset[7]  -1.2060088658822497e-02
    asset[7]  asset[6]  -1.2060088658822497e-02
    asset[6]  asset[8]  -3.9130335037859482e-02
    asset[8]  asset[6]  -3.9130335037859482e-02
    asset[6]  asset[9]  -2.8874841784783695e-02
    asset[9]  asset[6]  -2.8874841784783695e-02
    asset[6]  asset[10]  1.1467943228315101e-02
    asset[10]  asset[6]  1.1467943228315101e-02
    asset[6]  asset[11]  8.6729222377673627e-03
    asset[11]  asset[6]  8.6729222377673627e-03
    asset[6]  asset[12]  4.5961403123804447e-03
    asset[12]  asset[6]  4.5961403123804447e-03
    asset[6]  asset[13]  6.4063200353550714e-03
    asset[13]  asset[6]  6.4063200353550714e-03
    asset[6]  asset[14]  -2.4325152285900806e-03
    asset[14]  asset[6]  -2.4325152285900806e-03
    asset[6]  asset[15]  8.1958912894564435e-03
    asset[15]  asset[6]  8.1958912894564435e-03
    asset[6]  asset[16]  7.5225522546180611e-03
    asset[16]  asset[6]  7.5225522546180611e-03
    asset[6]  asset[17]  7.3357168496521186e-03
    asset[17]  asset[6]  7.3357168496521186e-03
    asset[6]  asset[18]  -3.2216188816779498e-02
    asset[18]  asset[6]  -3.2216188816779498e-02
    asset[6]  asset[19]  -3.3256410460754150e-03
    asset[19]  asset[6]  -3.3256410460754150e-03
    asset[7]  asset[7]  5.6166352669172526e-02
    asset[7]  asset[8]  2.2549104894605657e-02
    asset[8]  asset[7]  2.2549104894605657e-02
    asset[7]  asset[9]  1.8013821615445246e-02
    asset[9]  asset[7]  1.8013821615445246e-02
    asset[7]  asset[10]  4.9658088250804817e-03
    asset[10]  asset[7]  4.9658088250804817e-03
    asset[7]  asset[11]  -5.4957343267296836e-02
    asset[11]  asset[7]  -5.4957343267296836e-02
    asset[7]  asset[12]  -3.5377586153833386e-02
    asset[12]  asset[7]  -3.5377586153833386e-02
    asset[7]  asset[13]  7.3934524269809818e-03
    asset[13]  asset[7]  7.3934524269809818e-03
    asset[7]  asset[14]  1.2639003056598619e-02
    asset[14]  asset[7]  1.2639003056598619e-02
    asset[7]  asset[15]  -1.0045903295740320e-02
    asset[15]  asset[7]  -1.0045903295740320e-02
    asset[7]  asset[16]  -2.9400192922678391e-02
    asset[16]  asset[7]  -2.9400192922678391e-02
    asset[7]  asset[17]  7.0132212159298036e-03
    asset[17]  asset[7]  7.0132212159298036e-03
    asset[7]  asset[18]  4.5537948701099935e-03
    asset[18]  asset[7]  4.5537948701099935e-03
    asset[7]  asset[19]  -2.3992321478818881e-02
    asset[19]  asset[7]  -2.3992321478818881e-02
    asset[8]  asset[8]  1.2640683577185385e-01
    asset[8]  asset[9]  7.8148425287510814e-02
    asset[9]  asset[8]  7.8148425287510814e-02
    asset[8]  asset[10]  -4.2586958027883752e-02
    asset[10]  asset[8]  -4.2586958027883752e-02
    asset[8]  asset[11]  -1.3024177163733082e-02
    asset[11]  asset[8]  -1.3024177163733082e-02
    asset[8]  asset[12]  -2.8700750672663748e-02
    asset[12]  asset[8]  -2.8700750672663748e-02
    asset[8]  asset[13]  -3.4981155191275690e-02
    asset[13]  asset[8]  -3.4981155191275690e-02
    asset[8]  asset[14]  1.8216340395327685e-02
    asset[14]  asset[8]  1.8216340395327685e-02
    asset[8]  asset[15]  -1.9444443337568403e-02
    asset[15]  asset[8]  -1.9444443337568403e-02
    asset[8]  asset[16]  5.0756219270812683e-03
    asset[16]  asset[8]  5.0756219270812683e-03
    asset[8]  asset[17]  -2.7898917015530267e-02
    asset[17]  asset[8]  -2.7898917015530267e-02
    asset[8]  asset[18]  1.0728643730149723e-01
    asset[18]  asset[8]  1.0728643730149723e-01
    asset[8]  asset[19]  2.7979383823885158e-02
    asset[19]  asset[8]  2.7979383823885158e-02
    asset[9]  asset[9]  5.5549756704249907e-02
    asset[9]  asset[10]  -2.4275251133535874e-02
    asset[10]  asset[9]  -2.4275251133535874e-02
    asset[9]  asset[11]  -9.7855119966416583e-03
    asset[11]  asset[9]  -9.7855119966416583e-03
    asset[9]  asset[12]  -8.9334208204256364e-03
    asset[12]  asset[9]  -8.9334208204256364e-03
    asset[9]  asset[13]  -1.4775713614771039e-02
    asset[13]  asset[9]  -1.4775713614771039e-02
    asset[9]  asset[14]  7.1437390622790704e-03
    asset[14]  asset[9]  7.1437390622790704e-03
    asset[9]  asset[15]  -1.4120170120367221e-02
    asset[15]  asset[9]  -1.4120170120367221e-02
    asset[9]  asset[16]  -5.6927347266367816e-03
    asset[16]  asset[9]  -5.6927347266367816e-03
    asset[9]  asset[17]  -1.7261021734039220e-02
    asset[17]  asset[9]  -1.7261021734039220e-02
    asset[9]  asset[18]  6.6478183796968432e-02
    asset[18]  asset[9]  6.6478183796968432e-02
    asset[9]  asset[19]  8.3338140031727348e-03
    asset[19]  asset[9]  8.3338140031727348e-03
    asset[10]  asset[10]  1.9580134013580816e-02
    asset[10]  asset[11]  -5.1156407521460098e-03
    asset[11]  asset[10]  -5.1156407521460098e-03
    asset[10]  asset[12]  1.5935690293343581e-03
    asset[12]  asset[10]  1.5935690293343581e-03
    asset[10]  asset[13]  1.6464441524675490e-02
    asset[13]  asset[10]  1.6464441524675490e-02
    asset[10]  asset[14]  -5.2247704229077914e-03
    asset[14]  asset[10]  -5.2247704229077914e-03
    asset[10]  asset[15]  6.8994128503131330e-03
    asset[15]  asset[10]  6.8994128503131330e-03
    asset[10]  asset[16]  -9.2182266661883609e-03
    asset[16]  asset[10]  -9.2182266661883609e-03
    asset[10]  asset[17]  1.1335527038399094e-02
    asset[17]  asset[10]  1.1335527038399094e-02
    asset[10]  asset[18]  -4.0701479882956873e-02
    asset[18]  asset[10]  -4.0701479882956873e-02
    asset[10]  asset[19]  -1.8161176587788593e-02
    asset[19]  asset[10]  -1.8161176587788593e-02
    asset[11]  asset[11]  6.4353297473807705e-02
    asset[11]  asset[12]  3.1987106015700512e-02
    asset[12]  asset[11]  3.1987106015700512e-02
    asset[11]  asset[13]  -1.6190610542162760e-03
    asset[13]  asset[11]  -1.6190610542162760e-03
    asset[11]  asset[14]  -1.4632260645993024e-02
    asset[14]  asset[11]  -1.4632260645993024e-02
    asset[11]  asset[15]  1.5301479876418222e-02
    asset[15]  asset[11]  1.5301479876418222e-02
    asset[11]  asset[16]  3.1205040469112440e-02
    asset[16]  asset[11]  3.1205040469112440e-02
    asset[11]  asset[17]  -1.3183488459520575e-02
    asset[17]  asset[11]  -1.3183488459520575e-02
    asset[11]  asset[18]  5.9355468030068970e-03
    asset[18]  asset[11]  5.9355468030068970e-03
    asset[11]  asset[19]  1.7554436308215442e-02
    asset[19]  asset[11]  1.7554436308215442e-02
    asset[12]  asset[12]  4.9270818779566225e-02
    asset[12]  asset[13]  7.8540225592222592e-03
    asset[13]  asset[12]  7.8540225592222592e-03
    asset[12]  asset[14]  -1.8413260664552622e-02
    asset[14]  asset[12]  -1.8413260664552622e-02
    asset[12]  asset[15]  2.3246835358485349e-03
    asset[15]  asset[12]  2.3246835358485349e-03
    asset[12]  asset[16]  1.0597399530430185e-02
    asset[16]  asset[12]  1.0597399530430185e-02
    asset[12]  asset[17]  -1.7990088740756603e-03
    asset[17]  asset[12]  -1.7990088740756603e-03
    asset[12]  asset[18]  -1.5411144975802593e-02
    asset[18]  asset[12]  -1.5411144975802593e-02
    asset[12]  asset[19]  2.2198042960177469e-03
    asset[19]  asset[12]  2.2198042960177469e-03
    asset[13]  asset[13]  2.5858421098788567e-02
    asset[13]  asset[14]  -9.1719995213709639e-03
    asset[14]  asset[13]  -9.1719995213709639e-03
    asset[13]  asset[15]  8.2278369108526560e-03
    asset[15]  asset[13]  8.2278369108526560e-03
    asset[13]  asset[16]  -1.0882843438552026e-02
    asset[16]  asset[13]  -1.0882843438552026e-02
    asset[13]  asset[17]  6.0904613124611526e-03
    asset[17]  asset[13]  6.0904613124611526e-03
    asset[13]  asset[18]  -2.8662502455481492e-02
    asset[18]  asset[13]  -2.8662502455481492e-02
    asset[13]  asset[19]  -2.6563796613712568e-02
    asset[19]  asset[13]  -2.6563796613712568e-02
    asset[14]  asset[14]  1.1019171311786619e-02
    asset[14]  asset[15]  -5.1080164674129468e-03
    asset[15]  asset[14]  -5.1080164674129468e-03
    asset[14]  asset[16]  -2.5623382925306889e-03
    asset[16]  asset[14]  -2.5623382925306889e-03
    asset[14]  asset[17]  3.1504307774573486e-04
    asset[17]  asset[14]  3.1504307774573486e-04
    asset[14]  asset[18]  1.2572275615668760e-02
    asset[18]  asset[14]  1.2572275615668760e-02
    asset[14]  asset[19]  3.5250644126314156e-03
    asset[19]  asset[14]  3.5250644126314156e-03
    asset[15]  asset[15]  1.0292385836221217e-02
    asset[15]  asset[16]  8.2074844851470138e-03
    asset[16]  asset[15]  8.2074844851470138e-03
    asset[15]  asset[17]  -4.5893939247095299e-04
    asset[17]  asset[15]  -4.5893939247095299e-04
    asset[15]  asset[18]  -1.3563898810606607e-02
    asset[18]  asset[15]  -1.3563898810606607e-02
    asset[15]  asset[19]  -3.9731885215881484e-03
    asset[19]  asset[15]  -3.9731885215881484e-03
    asset[16]  asset[16]  4.0203630965208757e-02
    asset[16]  asset[17]  -1.1109171586495627e-02
    asset[17]  asset[16]  -1.1109171586495627e-02
    asset[16]  asset[18]  7.9444355762618366e-03
    asset[18]  asset[16]  7.9444355762618366e-03
    asset[16]  asset[19]  1.9049630410225508e-02
    asset[19]  asset[16]  1.9049630410225508e-02
    asset[17]  asset[17]  1.1845504666569069e-02
    asset[17]  asset[18]  -2.8456783073909545e-02
    asset[18]  asset[17]  -2.8456783073909545e-02
    asset[17]  asset[19]  -9.3131169135019457e-03
    asset[19]  asset[17]  -9.3131169135019457e-03
    asset[18]  asset[18]  1.0104179764866117e-01
    asset[18]  asset[19]  2.8509311773017593e-02
    asset[19]  asset[18]  2.8509311773017593e-02
    asset[19]  asset[19]  3.6304229531727197e-02
QCMATRIX   fixed_risk
    asset[0]  asset[0]  2.8925603287201888e-03
    asset[1]  asset[1]  7.0268620789054083e-04
    asset[2]  asset[2]  2.1100376828668793e-03
    asset[3]  asset[3]  1.6428909517920581e-03
    asset[4]  asset[4]  1.7727267375782904e-03
    asset[5]  asset[5]  4.8081510576133968e-03
    asset[6]  asset[6]  1.6499907708679984e-03
    asset[7]  asset[7]  5.6358366050036825e-03
    asset[8]  asset[8]  1.1975565837291254e-02
    asset[9]  asset[9]  5.8257195629551695e-03
    asset[10]  asset[10]  1.9228585018207401e-03
    asset[11]  asset[11]  6.8790826092047924e-03
    asset[12]  asset[12]  5.2334184244921264e-03
    asset[13]  asset[13]  2.2162802439025880e-03
    asset[14]  asset[14]  1.2375139890188505e-03
    asset[15]  asset[15]  9.7524580462138440e-04
    asset[16]  asset[16]  4.3410754907984217e-03
    asset[17]  asset[17]  1.2167019610726457e-03
    asset[18]  asset[18]  1.0119397581140480e-02
    asset[19]  asset[19]  3.4574574818524630e-03
ENDATA
